NAME : pr2392
TYPE : OP
DIMENSION : 2392
COST_LIMIT : 189016
ROUTE_NODES : 1250
ROUTE_SCORE : 84094
ROUTE_COST : 189011
NODE_SEQUENCE_SECTION
1
2392
2391
2390
2389
2388
2385
2384
2383
2382
2381
2370
2369
2366
2365
2364
2362
2361
2353
2354
2355
2356
2162
2164
2165
2168
2170
2172
2173
2174
2175
2184
2185
2186
2187
2243
2235
2236
2237
2207
2205
2203
2202
2201
2200
2198
2194
2195
2136
2137
2135
2134
2133
2132
2131
2130
2128
2127
2126
2125
2124
2123
2122
2121
2120
2119
2117
2116
2115
2077
2078
2079
2080
2081
2082
2083
2085
2086
2087
2108
2109
2107
2106
2105
2104
2088
2089
2093
2092
2090
2091
2020
2022
2027
2026
2028
2021
2019
2018
2017
2016
2015
2014
2013
2012
2031
2032
2033
2034
2035
2036
2037
2038
2039
2040
2041
2042
2043
2044
2045
2046
2047
2048
2049
2050
2051
2052
2057
2058
2059
2061
2062
2064
2065
2066
2067
2056
2053
2054
1613
1614
1615
1616
1617
1628
1629
1630
1631
1633
1634
1635
1636
1637
1638
1639
1640
1641
1642
1643
1644
1645
1647
1648
1649
1650
1651
1655
1654
1653
1847
1846
1845
1850
1849
2003
2002
2000
1999
1998
1997
1993
1992
1991
1990
1966
1965
1964
1963
1962
1960
1959
1958
1957
1956
1955
1954
1953
1951
1952
1947
1946
1945
1944
1943
1942
1941
1940
1939
1938
1937
1936
1935
1934
1933
1932
1930
1928
1927
1926
1918
1919
1920
1917
1916
1915
1914
1913
1912
1911
1909
1910
1908
1907
1906
1905
1904
1903
1902
1901
1900
1899
1898
1897
1896
1895
1894
1893
1892
1891
1890
1889
1888
1887
1886
1885
1884
1883
1882
1881
1880
1879
1878
1877
1974
1973
1972
1971
1970
1983
1984
1987
1989
1988
1986
1985
1982
1981
1980
1979
1978
1977
1976
1975
1876
1874
1870
1869
1868
1867
1866
1865
1864
1863
1862
1861
1859
1860
1858
1857
1856
1855
1854
1853
1852
1851
1843
1842
1841
1839
1837
1836
1835
1834
1833
1832
1831
1830
1829
1828
1827
1826
1825
1824
1823
1822
1821
1820
1819
1818
1817
1816
1815
1812
1811
1810
1809
1808
1807
1806
1805
1804
1803
1802
1801
1800
1799
1796
1797
1798
1792
1791
1790
1789
1788
1787
1786
1785
1784
1783
1782
1781
1780
1779
1778
1777
1776
1775
1774
1773
1772
1771
1770
1769
1768
1767
1766
1764
1763
1762
1761
1760
1759
1758
1757
1756
1755
1754
1750
1751
1752
1753
662
661
660
659
658
657
656
655
654
653
652
651
650
649
648
647
646
645
644
643
642
641
640
639
638
637
636
635
634
633
632
631
630
629
628
627
626
625
624
721
720
719
718
717
716
715
714
713
712
711
710
709
707
706
705
704
703
702
701
700
699
698
697
696
695
694
693
692
691
690
689
688
687
686
685
684
683
682
681
680
679
677
675
674
673
672
671
670
669
846
845
844
843
841
840
839
838
837
835
836
830
829
831
828
827
826
825
860
861
859
858
857
856
855
854
852
851
1703
1704
1705
1706
1707
1708
1709
1710
1711
1712
1713
1714
1715
1716
1735
1734
1733
1732
1731
1730
1729
1728
1660
1661
1662
1664
1663
1669
1668
1671
1672
1673
1674
1675
1676
1677
1684
1685
1686
1687
866
1689
1688
1691
1690
1696
1695
1700
1699
1698
863
862
864
865
868
869
871
872
873
874
885
886
887
888
890
889
824
823
822
821
820
819
818
817
816
815
814
813
804
805
812
811
809
808
806
807
795
794
793
792
791
790
789
788
787
786
785
784
783
782
781
780
779
778
759
760
761
776
773
772
774
769
768
767
766
765
764
763
762
758
757
756
755
754
748
747
746
745
744
740
739
738
737
736
735
734
733
732
731
730
729
728
727
726
725
724
723
722
623
622
621
620
619
618
617
616
615
614
613
612
611
610
609
608
606
607
605
604
603
602
601
600
599
596
597
598
590
589
588
587
584
583
582
581
580
579
578
577
576
575
574
573
572
571
570
569
568
567
566
565
564
563
562
561
560
559
558
557
556
555
554
553
552
551
550
549
548
547
546
545
544
543
542
541
540
539
538
537
536
535
534
533
532
531
530
529
528
527
526
525
524
523
522
521
520
519
518
517
516
515
514
513
512
511
510
509
508
507
506
505
504
503
502
501
500
499
498
497
496
495
494
492
491
490
489
488
487
486
485
484
483
482
481
480
479
478
477
476
475
474
473
470
469
471
468
467
466
465
464
463
462
461
460
459
458
457
456
455
454
453
452
451
450
449
448
447
446
445
444
443
442
441
438
437
436
435
433
432
431
430
429
428
427
426
439
440
418
419
417
416
415
414
413
412
411
410
409
408
407
965
966
967
968
969
970
971
972
973
974
975
976
977
978
979
980
981
908
909
910
911
912
913
914
915
916
917
918
919
922
921
920
958
957
956
955
954
953
952
951
950
949
948
947
946
945
944
943
942
933
932
930
929
928
927
926
925
923
924
798
797
799
800
803
802
801
898
897
899
900
901
902
903
904
905
906
907
993
992
991
990
989
988
1086
1088
1089
1087
1085
1084
1083
1082
1081
1074
1073
1072
1070
1069
1124
1123
1122
1121
1120
1119
1118
1117
1116
1127
1128
1129
1130
1131
1135
1134
1110
1137
1139
1138
1109
1111
1108
1107
1106
1105
1104
1103
1102
1101
1093
1094
1099
376
375
374
373
372
371
370
369
368
367
365
366
364
363
362
361
345
343
342
341
340
331
330
329
328
327
326
325
386
387
385
382
383
384
388
389
390
391
392
393
394
395
396
397
398
301
302
298
297
296
295
294
293
290
289
287
286
288
291
292
305
319
318
320
321
322
324
323
315
316
317
313
312
311
310
309
308
307
285
284
283
282
280
279
278
277
276
275
274
268
267
263
262
261
260
259
258
257
256
254
253
248
249
250
245
243
242
241
240
239
238
237
236
235
234
233
232
231
230
229
228
227
226
225
223
222
123
124
221
220
219
218
217
210
209
208
207
206
205
204
203
202
201
200
199
198
133
134
197
196
195
194
193
192
191
190
188
183
184
185
187
186
165
164
166
167
168
170
171
172
173
1186
1184
1185
1187
1188
1189
1190
1191
1192
1194
1195
1201
1200
1203
1204
1205
1206
1207
1214
1215
1216
1217
1218
1219
1220
1221
1222
1228
1227
1230
1233
1235
1236
1237
1238
1043
1042
1039
1038
1037
1036
1035
1034
1033
1032
1031
1030
1029
1028
1027
1026
1449
1448
1447
1444
1445
1446
1459
1473
1472
1471
1469
1482
1481
1479
1540
1541
1539
1536
1535
1533
1532
1529
1528
1527
1526
1525
1524
1522
1521
1519
1520
1518
1517
2256
2257
2258
2265
2266
2268
2293
2294
-1
DEPOT_SECTION
1
-1
EOF
